NAME : portcgen-15-21
COMMENT : portcgen N=15, seed=21
TYPE : TSP
DIMENSION : 15
EDGE_WEIGHT_TYPE : EUC_2D
NODE_COORD_SECTION
1 -174492 127489
2 -174312 246625
3 39736 236049
4 13023 173588
5 75418 -88884
6 -289782 389020
7 172540 -62133
8 -169563 175595
9 -67189 57963
10 180114 326780
11 183065 -544896
12 107636 -80493
13 229120 -640926
14 314386 -178261
15 692946 347197
